;; Mutation-Based Equivalence Benchmark
;; Source:     AutomatArk / instance14812.smt2
;; Mutations:  literal_char_inc, intersect_max_len_10, literal_char_inc
;; Status:     sat
;;
;; Original regex vs mutated regex
;; Equivalence check: unsat ⟺ L(R1) = L(R2)

(set-info :smt-lib-version 2.6)
(set-info :category "mutation")
(set-info :status sat)
(set-logic QF_S)


;; R1: original
;; R2: mutated (literal_char_inc, intersect_max_len_10, literal_char_inc)
(assert
  (not
    (=
      (re.union (re.++ ((_ re.loop 3 3) (str.to_re "0")) (re.* (str.to_re "0"))) (re.++ ((_ re.loop 3 3) (str.to_re "1")) (re.* (str.to_re "1"))) (re.++ ((_ re.loop 3 3) (str.to_re "2")) (re.* (str.to_re "2"))) (re.++ ((_ re.loop 3 3) (str.to_re "3")) (re.* (str.to_re "3"))) (re.++ ((_ re.loop 3 3) (str.to_re "4")) (re.* (str.to_re "4"))) (re.++ ((_ re.loop 3 3) (str.to_re "5")) (re.* (str.to_re "5"))) (re.++ ((_ re.loop 3 3) (str.to_re "6")) (re.* (str.to_re "6"))) (re.++ ((_ re.loop 3 3) (str.to_re "7")) (re.* (str.to_re "7"))) (re.++ ((_ re.loop 3 3) (str.to_re "8")) (re.* (str.to_re "8"))) (re.++ (str.to_re "\u{a}") ((_ re.loop 3 3) (str.to_re "9")) (re.* (str.to_re "9"))))
      (re.union (re.++ ((_ re.loop 3 3) (str.to_re "0")) (re.* (str.to_re "0"))) (re.++ ((_ re.loop 3 3) (str.to_re "1")) (re.* (str.to_re "1"))) (re.++ ((_ re.loop 3 3) (str.to_re "2")) (re.* (str.to_re "2"))) (re.++ ((_ re.loop 3 3) (str.to_re "3")) (re.* (str.to_re "4"))) (re.++ (re.inter ((_ re.loop 3 3) (str.to_re "4")) ((_ re.loop 0 10) re.allchar)) (re.* (str.to_re "4"))) (re.++ ((_ re.loop 3 3) (str.to_re "5")) (re.* (str.to_re "6"))) (re.++ ((_ re.loop 3 3) (str.to_re "6")) (re.* (str.to_re "6"))) (re.++ ((_ re.loop 3 3) (str.to_re "7")) (re.* (str.to_re "7"))) (re.++ ((_ re.loop 3 3) (str.to_re "8")) (re.* (str.to_re "8"))) (re.++ (str.to_re "\u{a}") ((_ re.loop 3 3) (str.to_re "9")) (re.* (str.to_re "9")))))))

(check-sat)
(exit)
